;; unsolved. no good options known.
(set-logic HORN)
(declare-rel assign_19_5_118 (Int Int Int Int Int Int Int ))
(declare-rel assign_12_5_68 (Int Int Int Int Int Int Int ))
(declare-rel assign_9_1_37 (Int Int Int Int Int Int Int ))
(declare-rel arrayassign_11_5_59 (Int Int Int Int Int Int Int ))
(declare-rel assign_15_1_77 (Int Int Int Int Int Int Int ))
(declare-rel query!0 (Int Int Int Int Int Int Int ))
(declare-rel start (Int Int Int Int Int Int Int ))
(declare-rel assert_18_5_109 (Int Int Int Int Int Int Int ))
(declare-rel while_10_1_71 (Int Int Int Int Int Int Int ))
(declare-rel assign_17_12_95 (Int Int Int Int Int Int Int ))
(declare-rel while_16_1_121 (Int Int Int Int Int Int Int ))
; assign_9_1_37 -> start

; assign_12_5_68 -> arrayassign_11_5_59
; arrayassign_11_5_59 -> while_10_1_71
; while_10_1_71 -> assign_12_5_68
; while_10_1_71 -> assign_9_1_37

; assign_15_1_77 -> while_10_1_71

; assign_19_5_118 -> assert_18_5_109
; assert_18_5_109 -> assign_17_12_95
; assign_17_12_95 -> while_16_1_121
; while_16_1_121 -> assign_19_5_118
; while_16_1_121 -> assign_15_1_77

; query!0 -> assert_18_5_109


(assert (forall ((A Int)
         (B Int)
         (C Int)
         (D Int)
         (E (Array Int Int))
         (F (Array Int Int))
         (G Int)
         (H Int)
         (I Int))
  (=> (and (= B (select E D)) (= A (select F C))) (start D B C A G H I))))

(assert (forall ((A Int)
         (B Int)
         (C Int)
         (D Int)
         (E Int)
         (F Int)
         (G Int)
         (H Int)
         (I Int)
         (J (Array Int Int))
         (K (Array Int Int)))
  (=> (and (start F B E A I H G)
           (= B (select K F))
           (= C (select J E))
           (= D (select K F))
           (= A (select J E)))
      (assign_9_1_37 F D E C I H G))))

(assert (forall ((A Int)
         (B Int)
         (C Int)
         (D Int)
         (E Int)
         (F Int)
         (G Int)
         (H Int)
         (I Int)
         (J (Array Int Int))
         (K (Array Int Int)))
  (=> (and (assign_9_1_37 F B E A I H G)
           (= B (select K F))
           (= C (select J E))
           (= D (select K F))
           (= A (select J E)))
      (while_10_1_71 F D E C I H 0))))

(assert (forall ((A Int)
         (B Int)
         (C Int)
         (D Int)
         (E Int)
         (F Int)
         (G (Array Int Int))
         (H (Array Int Int))
         (I Int)
         (J Int)
         (K Int))
  (=> (and (while_10_1_71 F B E A I J K)
           (= B (select G F))
           (= C (select H E))
           (= D (select G F))
           (not (<= J K))
           (= A (select H E)))
      (arrayassign_11_5_59 F D E C I J K))))

(assert (forall ((A Int)
         (B Int)
         (C Int)
         (D Int)
         (E Int)
         (F Int)
         (G (Array Int Int))
         (H (Array Int Int))
         (I Int)
         (J Int)
         (K Int))
  (=> (and (while_10_1_71 F B E A I J K)
           (= B (select G F))
           (= C (select H E))
           (= D (select G F))
           (<= J K)
           (= A (select H E)))
      (assign_15_1_77 F D E C I J K))))

(assert (forall ((A Int)
         (B Int)
         (C Int)
         (D Int)
         (E Int)
         (F Int)
         (G Int)
         (H Int)
         (I (Array Int Int))
         (J Int)
         (K Int)
         (L Int)
         (M (Array Int Int))
         (N (Array Int Int)))
  (let ((a!1 (and (arrayassign_11_5_59 H D J C L K J)
                  (arrayassign_11_5_59 H B G A L K J)
                  (= A (select M G))
                  (= B (select N H))
                  (= C (select M J))
                  (= D (select N H))
                  (= E (select M G))
                  (= F (select I H))
                  (= I (store N J (select M J))))))
    (=> a!1 (assign_12_5_68 H F G E L K J)))))

(assert (forall ((A Int)
         (B Int)
         (C Int)
         (D Int)
         (E Int)
         (F Int)
         (G Int)
         (H Int)
         (I Int)
         (J Int)
         (K (Array Int Int))
         (L (Array Int Int)))
  (=> (and (assign_12_5_68 F B E A J I H)
           (= B (select L F))
           (= C (select K E))
           (= D (select L F))
           (= G (+ 1 H))
           (= A (select K E)))
      (while_10_1_71 F D E C J I G))))

(assert (forall ((A Int)
         (B Int)
         (C Int)
         (D Int)
         (E Int)
         (F Int)
         (G Int)
         (H Int)
         (I Int)
         (J (Array Int Int))
         (K (Array Int Int)))
  (=> (and (assign_15_1_77 F B E A I H G)
           (= B (select K F))
           (= C (select J E))
           (= D (select K F))
           (= A (select J E)))
      (while_16_1_121 F D E C I H 0))))

(assert (forall ((A Int)
         (B Int)
         (C Int)
         (D Int)
         (E Int)
         (F Int)
         (G (Array Int Int))
         (H (Array Int Int))
         (I Int)
         (J Int)
         (K Int))
  (=> (and (while_16_1_121 F B E A I J K)
           (= B (select G F))
           (= C (select H E))
           (= D (select G F))
           (not (<= J K))
           (= A (select H E)))
      (assign_17_12_95 F D E C I J K))))

(assert (forall ((A Int)
         (B Int)
         (C Int)
         (D Int)
         (E Int)
         (F Int)
         (G Int)
         (H Int)
         (I Int)
         (J Int)
         (K Int)
         (L Int)
         (M (Array Int Int))
         (N (Array Int Int)))
  (=> (and (assign_17_12_95 H D J C L K J)
           (assign_17_12_95 H B G A L K J)
           (= B (select N H))
           (= C (select M J))
           (= D (select N H))
           (= E (select M G))
           (= F (select N H))
           (= I (select M J))
           (= A (select M G)))
      (assert_18_5_109 H F G E I K J))))

(assert (forall ((A Int)
         (B Int)
         (C Int)
         (D Int)
         (E Int)
         (F Int)
         (G Int)
         (H Int)
         (I Int)
         (J (Array Int Int))
         (K (Array Int Int)))
  (=> (and (assert_18_5_109 F B E A I H G)
           (= B (select K F))
           (= C (select J E))
           (= D (select K F))
           (= A (select J E)))
      (assign_19_5_118 F D E C I H G))))

(assert (forall ((A Int)
         (B Int)
         (C Int)
         (D Int)
         (E Int)
         (F Int)
         (G Int)
         (H Int)
         (I Int)
         (J Int)
         (K (Array Int Int))
         (L (Array Int Int)))
  (=> (and (assign_19_5_118 F B E A J I H)
           (= B (select L F))
           (= C (select K E))
           (= D (select L F))
           (= G (+ 1 H))
           (= A (select K E)))
      (while_16_1_121 F D E C J I G))))

(assert (forall ((A Int)
         (B Int)
         (C Int)
         (D Int)
         (E Int)
         (F Int)
         (G Int)
         (H Int)
         (I Int)
         (J Int)
         (K Int)
         (L (Array Int Int))
         (M (Array Int Int)))
  (let ((a!1 (and (assert_18_5_109 I D H C K J I)
                  (assert_18_5_109 G B H A K J I)
                  (= B (select M G))
                  (= C (select L H))
                  (= D (select M I))
                  (= E (select M G))
                  (= F (select L H))
                  (not (= K (select M I)))
                  (= A (select L H)))))
    (=> a!1 (query!0 I J K H F G E)))))

(assert (forall ((A Int)
         (B Int)
         (C Int)
         (D Int)
         (E Int)
         (F Int)
         (G Int)) (=> (query!0 A B C D E F G) false)))
(check-sat)
